c A SAT instance generated from a 3-CNF formula that had 24 clauses and 8 variables
p cnf 8 24
1 2 7 0
-8 -6 4 0
-2 1 -5 0
1 3 4 0
-6 -8 -2 0
-5 -2 -6 0
-7 -4 -5 0
5 1 3 0
3 -4 -8 0
4 -7 -6 0
7 -1 4 0
1 -2 -5 0
3 7 -1 0
-5 -8 -7 0
-8 -3 2 0
-2 -7 -8 0
6 -3 -1 0
-2 -8 -3 0
-5 1 -2 0
-8 2 7 0
-3 6 5 0
-2 1 -8 0
3 -1 6 0
-3 6 -1 0
